* #variable= 46 #constraint= 3 
+1 x1 -1 x24 +2 x2 -2 x25 +4 x3 -4 x26 +8 x4 -8 x27 +16 x5 -16 x28 +32 x6 -32 x29 +64 x7 -64 x30 +128 x8 -128 x31 +256 x9 -256 x32 +512 x10 -512 x33 +1024 x11 -1024 x34 +2048 x12 -2048 x35 +4096 x13 -4096 x36 +8192 x14 -8192 x37 +16384 x15 -16384 x38 +32768 x16 -32768 x39 +65536 x17 -65536 x40 +131072 x18 -131072 x41 +262144 x19 -262144 x42 +524288 x20 -524288 x43 +1048576 x21 -1048576 x44 +2097152 x22 -2097152 x45 +4194304 x23 -4194304 x46 = 0 ;
-1 x1 -1 x24 >= -1; 
+1 x1 +1 x24 >= 1; 
